818588
104,201,148,114,1,131,79,51,220,58,57,138,92,212,44,211,103,32,223,128,152,216,20,3,141,169,89,108,87,227,145,11,102,186,149,170,185,37,202,5,222,175,12,124,45,213,226,18,133,110,47,224,46,16,27,160,204,74,214,33,36,191,178,195,88,106,115,183,165,95,90,67,8,100,49,150,107,93,34,86,61,101,54,77,129,80,39,168,26,111,154,132,228,161,134,82,156,73,38,206,198,177,30,42,146,126,137,136,14,29,219,43,63,4,155,210,144,143,25,21,19,116,182,209,6,35,0,71,62,31,139,70,117,48,66,162,59,15,188,184,2,207,158,22,68,225,176,50,97,41,159,112,72,208,125,85,69,217,205,135,180,84,122,24,181,60,147,130,172,123,187,166,78,94,83,28,173,75,56,192,194,118,113,190,151,121,119,7,96,193,164,13,109,200,9,197,199,64,153,163,196,142,10,167,171,203,229,81,157,179,120,76,221,127,140,218,105,40,23,65,189,98,215,99,91,52,17,55,53,174,104